% Auto-generated by scripts/generate_dzn.py
% problem_type   = regex
% instance       = regex_47
% source_json    = instances_json/2_high_blowup/regex_47.json
% blowup         = 36.717948717948715
% representation = NFA

mode = 1;

var_count = 33;
Q = 39;
S = 3;
q0 = 1;
F = {37, 38, 39};
d_dfa = array2d(1..39, 1..3, [
  0, 0, 0,
  0, 0, 0,
  0, 0, 0,
  0, 0, 0,
  0, 0, 0,
  0, 0, 0,
  0, 0, 0,
  0, 0, 0,
  0, 0, 0,
  0, 0, 0,
  0, 0, 0,
  0, 0, 0,
  0, 0, 0,
  0, 0, 0,
  0, 0, 0,
  0, 0, 0,
  0, 0, 0,
  0, 0, 0,
  0, 0, 0,
  0, 0, 0,
  0, 0, 0,
  0, 0, 0,
  0, 0, 0,
  0, 0, 0,
  0, 0, 0,
  0, 0, 0,
  0, 0, 0,
  0, 0, 0,
  0, 0, 0,
  0, 0, 0,
  0, 0, 0,
  0, 0, 0,
  0, 0, 0,
  0, 0, 0,
  0, 0, 0,
  0, 0, 0,
  0, 0, 0,
  0, 0, 0,
  0, 0, 0
]);
d_nfa = array2d(1..39, 1..3, [
  {2}, {3, 5}, {4},
  {2}, {3, 5}, {4},
  {2}, {3, 5}, {4},
  {2}, {3, 5}, {4},
  {}, {6}, {},
  {7}, {8}, {9},
  {10}, {11}, {12},
  {10}, {11}, {12},
  {10}, {11}, {12},
  {13}, {14}, {15},
  {13}, {14}, {15},
  {13}, {14}, {15},
  {16}, {17}, {18},
  {16}, {17}, {18},
  {16}, {17}, {18},
  {19}, {20}, {21},
  {19}, {20}, {21},
  {19}, {20}, {21},
  {22}, {23}, {24},
  {22}, {23}, {24},
  {22}, {23}, {24},
  {25}, {26}, {27},
  {25}, {26}, {27},
  {25}, {26}, {27},
  {28}, {29}, {30},
  {28}, {29}, {30},
  {28}, {29}, {30},
  {31}, {32}, {33},
  {31}, {32}, {33},
  {31}, {32}, {33},
  {34}, {35}, {36},
  {34}, {35}, {36},
  {34}, {35}, {36},
  {37}, {38}, {39},
  {37}, {38}, {39},
  {37}, {38}, {39},
  {}, {}, {},
  {}, {}, {},
  {}, {}, {}
]);
